5주차실습2.lp
\ Generated by MPModelProtoExporter
\   Name             : 
\   Format           : Free
\   Constraints      : 15
\   Variables        : 56
\     Binary         : 56
\     Integer        : 0
\     Continuous     : 0
Minimize
 Obj: +15 X_0_0 +18 X_0_1 +21 X_0_2 +12 X_0_3 +25 X_0_4 +19 X_0_5 +14 X_0_6 +22 X_0_7 +20 X_1_0 +14 X_1_1 +17 X_1_2 +23 X_1_3 +16 X_1_4 +21 X_1_5 +18 X_1_6 +13 X_1_7 +11 X_2_0 +22 X_2_1 +19 X_2_2 +16 X_2_3 +20 X_2_4 +15 X_2_5 +23 X_2_6 +17 X_2_7 +24 X_3_0 +16 X_3_1 +13 X_3_2 +20 X_3_3 +18 X_3_4 +22 X_3_5 +11 X_3_6 +19 X_3_7 +17 X_4_0 +20 X_4_1 +22 X_4_2 +14 X_4_3 +13 X_4_4 +17 X_4_5 +20 X_4_6 +16 X_4_7 +19 X_5_0 +13 X_5_1 +16 X_5_2 +21 X_5_3 +22 X_5_4 +14 X_5_5 +17 X_5_6 +20 X_5_7 +22 X_6_0 +17 X_6_1 +20 X_6_2 +18 X_6_3 +15 X_6_4 +20 X_6_5 +16 X_6_6 +21 X_6_7 
Subject to
 consultant_0: +1 X_0_0 +1 X_0_1 +1 X_0_2 +1 X_0_3 +1 X_0_4 +1 X_0_5 +1 X_0_6 +1 X_0_7  = 1
 consultant_1: +1 X_1_0 +1 X_1_1 +1 X_1_2 +1 X_1_3 +1 X_1_4 +1 X_1_5 +1 X_1_6 +1 X_1_7  = 1
 consultant_2: +1 X_2_0 +1 X_2_1 +1 X_2_2 +1 X_2_3 +1 X_2_4 +1 X_2_5 +1 X_2_6 +1 X_2_7  = 1
 consultant_3: +1 X_3_0 +1 X_3_1 +1 X_3_2 +1 X_3_3 +1 X_3_4 +1 X_3_5 +1 X_3_6 +1 X_3_7  = 1
 consultant_4: +1 X_4_0 +1 X_4_1 +1 X_4_2 +1 X_4_3 +1 X_4_4 +1 X_4_5 +1 X_4_6 +1 X_4_7  = 1
 consultant_5: +1 X_5_0 +1 X_5_1 +1 X_5_2 +1 X_5_3 +1 X_5_4 +1 X_5_5 +1 X_5_6 +1 X_5_7  = 1
 consultant_6: +1 X_6_0 +1 X_6_1 +1 X_6_2 +1 X_6_3 +1 X_6_4 +1 X_6_5 +1 X_6_6 +1 X_6_7  = 1
 project_0: +1 X_0_0 +1 X_1_0 +1 X_2_0 +1 X_3_0 +1 X_4_0 +1 X_5_0 +1 X_6_0  <= 1
 project_1: +1 X_0_1 +1 X_1_1 +1 X_2_1 +1 X_3_1 +1 X_4_1 +1 X_5_1 +1 X_6_1  <= 1
 project_2: +1 X_0_2 +1 X_1_2 +1 X_2_2 +1 X_3_2 +1 X_4_2 +1 X_5_2 +1 X_6_2  <= 1
 project_3: +1 X_0_3 +1 X_1_3 +1 X_2_3 +1 X_3_3 +1 X_4_3 +1 X_5_3 +1 X_6_3  <= 1
 project_4: +1 X_0_4 +1 X_1_4 +1 X_2_4 +1 X_3_4 +1 X_4_4 +1 X_5_4 +1 X_6_4  <= 1
 project_5: +1 X_0_5 +1 X_1_5 +1 X_2_5 +1 X_3_5 +1 X_4_5 +1 X_5_5 +1 X_6_5  <= 1
 project_6: +1 X_0_6 +1 X_1_6 +1 X_2_6 +1 X_3_6 +1 X_4_6 +1 X_5_6 +1 X_6_6  <= 1
 project_7: +1 X_0_7 +1 X_1_7 +1 X_2_7 +1 X_3_7 +1 X_4_7 +1 X_5_7 +1 X_6_7  <= 1
Bounds
 0 <= X_0_0 <= 1
 0 <= X_0_1 <= 1
 0 <= X_0_2 <= 1
 0 <= X_0_3 <= 1
 0 <= X_0_4 <= 1
 0 <= X_0_5 <= 1
 0 <= X_0_6 <= 1
 0 <= X_0_7 <= 1
 0 <= X_1_0 <= 1
 0 <= X_1_1 <= 1
 0 <= X_1_2 <= 1
 0 <= X_1_3 <= 1
 0 <= X_1_4 <= 1
 0 <= X_1_5 <= 1
 0 <= X_1_6 <= 1
 0 <= X_1_7 <= 1
 0 <= X_2_0 <= 1
 0 <= X_2_1 <= 1
 0 <= X_2_2 <= 1
 0 <= X_2_3 <= 1
 0 <= X_2_4 <= 1
 0 <= X_2_5 <= 1
 0 <= X_2_6 <= 1
 0 <= X_2_7 <= 1
 0 <= X_3_0 <= 1
 0 <= X_3_1 <= 1
 0 <= X_3_2 <= 1
 0 <= X_3_3 <= 1
 0 <= X_3_4 <= 1
 0 <= X_3_5 <= 1
 0 <= X_3_6 <= 1
 0 <= X_3_7 <= 1
 0 <= X_4_0 <= 1
 0 <= X_4_1 <= 1
 0 <= X_4_2 <= 1
 0 <= X_4_3 <= 1
 0 <= X_4_4 <= 1
 0 <= X_4_5 <= 1
 0 <= X_4_6 <= 1
 0 <= X_4_7 <= 1
 0 <= X_5_0 <= 1
 0 <= X_5_1 <= 1
 0 <= X_5_2 <= 1
 0 <= X_5_3 <= 1
 0 <= X_5_4 <= 1
 0 <= X_5_5 <= 1
 0 <= X_5_6 <= 1
 0 <= X_5_7 <= 1
 0 <= X_6_0 <= 1
 0 <= X_6_1 <= 1
 0 <= X_6_2 <= 1
 0 <= X_6_3 <= 1
 0 <= X_6_4 <= 1
 0 <= X_6_5 <= 1
 0 <= X_6_6 <= 1
 0 <= X_6_7 <= 1
Binaries
 X_0_0
 X_0_1
 X_0_2
 X_0_3
 X_0_4
 X_0_5
 X_0_6
 X_0_7
 X_1_0
 X_1_1
 X_1_2
 X_1_3
 X_1_4
 X_1_5
 X_1_6
 X_1_7
 X_2_0
 X_2_1
 X_2_2
 X_2_3
 X_2_4
 X_2_5
 X_2_6
 X_2_7
 X_3_0
 X_3_1
 X_3_2
 X_3_3
 X_3_4
 X_3_5
 X_3_6
 X_3_7
 X_4_0
 X_4_1
 X_4_2
 X_4_3
 X_4_4
 X_4_5
 X_4_6
 X_4_7
 X_5_0
 X_5_1
 X_5_2
 X_5_3
 X_5_4
 X_5_5
 X_5_6
 X_5_7
 X_6_0
 X_6_1
 X_6_2
 X_6_3
 X_6_4
 X_6_5
 X_6_6
 X_6_7
End
